Good Start for K in 16 Water Cluster
1.0
	30.0	0.0	0.0
	0.0	30.0	0.0
	0.0	0.0	30.0
K	O	H
1	16	32
Cartesian
	15.000	15.000	15.000
	14.708	16.122	19.776
	12.257	10.592	16.683
	15.355	18.311	16.097
	14.199	14.984	11.893
	14.431	19.646	13.984
	17.833	14.233	14.703
	16.721	14.634	19.044
	17.204	12.592	16.849
	13.426	15.162	17.689
	13.809	12.765	13.475
	16.755	16.152	16.521
	18.123	17.768	13.091
	15.157	16.918	13.313
	12.227	15.550	14.980
	13.784	12.595	16.240
	12.077	17.818	13.825
	14.016	15.819	19.188
	14.253	16.647	20.433
	11.505	10.166	16.271
	12.394	10.104	17.496
	15.599	19.000	16.715
	15.969	17.599	16.276
	14.445	15.727	12.443
	13.942	15.377	11.059
	14.845	19.289	14.770
	14.770	20.539	13.920
	18.623	13.966	14.233
	17.773	13.623	15.438
	15.902	15.053	19.308
	17.226	14.563	19.854
	17.097	13.381	17.381
	16.509	12.006	17.148
	12.666	15.480	17.201
	13.391	14.210	17.594
	13.292	12.012	13.189
	13.588	13.458	12.853
	17.657	15.973	16.256
	16.686	15.783	17.401
	18.743	17.821	12.364
	18.390	16.989	13.578
	16.072	17.171	13.195
	14.696	17.745	13.457
	11.372	15.218	14.706
	12.208	16.479	14.750
	14.046	12.348	15.353
	13.086	11.980	16.464
	11.541	18.188	13.124
	12.647	18.537	14.096
