K  O  H 
 1.0000000000000000
    30.0000000000000000    0.0000000000000000    0.0000000000000000
     0.0000000000000000   30.0000000000000000    0.0000000000000000
     0.0000000000000000    0.0000000000000000   30.0000000000000000
 K   O   H  
   1  16  32
Cartesian
 15.0000000000000000 15.0000000000000000 15.0000000000000000
 14.7080000000000002 16.1219999999999999 19.7759999999999998
 12.2569999999999997 10.5920000000000005 16.6829999999999998
 15.3550000000000004 18.3109999999999999 16.0970000000000013
 14.1989999999999998 14.9840000000000000 11.8930000000000007
 14.4309999999999992 19.6460000000000008 13.9840000000000000
 17.8329999999999984 14.2330000000000005 14.7029999999999994
 16.7210000000000001 14.6340000000000003 19.0440000000000005
 17.2040000000000006 12.5920000000000005 16.8490000000000002
 13.4260000000000002 15.1620000000000008 17.6890000000000001
 13.8089999999999993 12.7650000000000006 13.4749999999999996
 16.7549999999999990 16.1520000000000010 16.5210000000000008
 18.1230000000000011 17.7680000000000007 13.0909999999999993
 15.1570000000000000 16.9179999999999993 13.3130000000000006
 12.2270000000000003 15.5500000000000007 14.9800000000000004
 13.7840000000000007 12.5950000000000006 16.2399999999999984
 12.0770000000000000 17.8180000000000014 13.8249999999999993
 14.0160000000000000 15.8190000000000008 19.1879999999999988
 14.2530000000000001 16.6469999999999985 20.4329999999999998
 11.5050000000000008 10.1660000000000004 16.2710000000000008
 12.3940000000000001 10.1039999999999992 17.4959999999999987
 15.5990000000000002 19.0000000000000000 16.7149999999999999
 15.9689999999999994 17.5990000000000002 16.2759999999999998
 14.4450000000000003 15.7270000000000003 12.4429999999999996
 13.9420000000000002 15.3770000000000007 11.0589999999999993
 14.8450000000000006 19.2890000000000015 14.7699999999999996
 14.7699999999999996 20.5390000000000015 13.9199999999999999
 18.6230000000000011 13.9659999999999993 14.2330000000000005
 17.7729999999999997 13.6229999999999993 15.4380000000000006
 15.9019999999999992 15.0530000000000008 19.3079999999999998
 17.2259999999999991 14.5630000000000006 19.8539999999999992
 17.0970000000000013 13.3810000000000002 17.3810000000000002
 16.5090000000000003 12.0060000000000002 17.1479999999999997
 12.6660000000000004 15.4800000000000004 17.2010000000000005
 13.3910000000000000 14.2100000000000009 17.5940000000000012
 13.2919999999999998 12.0120000000000005 13.1890000000000001
 13.5879999999999992 13.4580000000000002 12.8529999999999998
 17.6570000000000000 15.9730000000000008 16.2560000000000002
 16.6859999999999999 15.7829999999999995 17.4009999999999998
 18.7429999999999986 17.8210000000000015 12.3640000000000008
 18.3900000000000006 16.9890000000000008 13.5779999999999994
 16.0719999999999992 17.1709999999999994 13.1950000000000003
 14.6959999999999997 17.7450000000000010 13.4570000000000007
 11.3719999999999999 15.2180000000000000 14.7059999999999995
 12.2080000000000002 16.4789999999999992 14.7500000000000000
 14.0459999999999994 12.3480000000000008 15.3529999999999998
 13.0860000000000003 11.9800000000000004 16.4639999999999986
 11.5410000000000004 18.1879999999999988 13.1240000000000006
 12.6470000000000002 18.5369999999999990 14.0960000000000001
